
n_res = 6;
rcap = [20, 17, 929, 957, 883, 912];
rtype = [1, 1, 2, 2, 2, 2];
n_tasks = 50;
modes =  [{1, 2, 3, 4, 5, 6, 7, 8, 9}, {10, 11, 12, 13, 14, 15, 16, 17, 18}, {19, 20, 21, 22, 23, 24, 25, 26, 27}, {28, 29, 30, 31, 32, 33, 34, 35, 36}, {37, 38, 39, 40, 41, 42, 43, 44, 45}, {46, 47, 48, 49, 50, 51, 52, 53, 54}, {55, 56, 57, 58, 59, 60, 61, 62, 63}, {64, 65, 66, 67, 68, 69, 70, 71, 72}, {73, 74, 75, 76, 77, 78, 79, 80, 81}, {82, 83, 84, 85, 86, 87, 88, 89, 90}, {91, 92, 93, 94, 95, 96, 97, 98, 99}, {100, 101, 102, 103, 104, 105, 106, 107, 108}, {109, 110, 111, 112, 113, 114, 115, 116, 117}, {118, 119, 120, 121, 122, 123, 124, 125, 126}, {127, 128, 129, 130, 131, 132, 133, 134, 135}, {136, 137, 138, 139, 140, 141, 142, 143, 144}, {145, 146, 147, 148, 149, 150, 151, 152, 153}, {154, 155, 156, 157, 158, 159, 160, 161, 162}, {163, 164, 165, 166, 167, 168, 169, 170, 171}, {172, 173, 174, 175, 176, 177, 178, 179, 180}, {181, 182, 183, 184, 185, 186, 187, 188, 189}, {190, 191, 192, 193, 194, 195, 196, 197, 198}, {199, 200, 201, 202, 203, 204, 205, 206, 207}, {208, 209, 210, 211, 212, 213, 214, 215, 216}, {217, 218, 219, 220, 221, 222, 223, 224, 225}, {226, 227, 228, 229, 230, 231, 232, 233, 234}, {235, 236, 237, 238, 239, 240, 241, 242, 243}, {244, 245, 246, 247, 248, 249, 250, 251, 252}, {253, 254, 255, 256, 257, 258, 259, 260, 261}, {262, 263, 264, 265, 266, 267, 268, 269, 270}, {271, 272, 273, 274, 275, 276, 277, 278, 279}, {280, 281, 282, 283, 284, 285, 286, 287, 288}, {289, 290, 291, 292, 293, 294, 295, 296, 297}, {298, 299, 300, 301, 302, 303, 304, 305, 306}, {307, 308, 309, 310, 311, 312, 313, 314, 315}, {316, 317, 318, 319, 320, 321, 322, 323, 324}, {325, 326, 327, 328, 329, 330, 331, 332, 333}, {334, 335, 336, 337, 338, 339, 340, 341, 342}, {343, 344, 345, 346, 347, 348, 349, 350, 351}, {352, 353, 354, 355, 356, 357, 358, 359, 360}, {361, 362, 363, 364, 365, 366, 367, 368, 369}, {370, 371, 372, 373, 374, 375, 376, 377, 378}, {379, 380, 381, 382, 383, 384, 385, 386, 387}, {388, 389, 390, 391, 392, 393, 394, 395, 396}, {397, 398, 399, 400, 401, 402, 403, 404, 405}, {406, 407, 408, 409, 410, 411, 412, 413, 414}, {415, 416, 417, 418, 419, 420, 421, 422, 423}, {424, 425, 426, 427, 428, 429, 430, 431, 432}, {433, 434, 435, 436, 437, 438, 439, 440, 441}, {442, 443, 444, 445, 446, 447, 448, 449, 450}];
succ =  [{49, 47, 41, 26, 24, 22, 16, 15}, {47, 41, 31, 29, 22, 21, 15}, {32, 30, 22, 8}, {50, 43, 42, 41, 40, 38, 36, 33, 32, 31, 30, 29, 26}, {48, 46, 44, 43, 31, 30, 28, 21, 19}, {48, 46, 44, 43, 42, 30, 28, 25, 24, 21}, {49, 44, 41, 39, 37, 36, 29, 28, 27, 22}, {48, 45, 44, 42, 41, 40, 29, 26, 21}, {45, 43, 38, 35, 31, 30, 26, 19}, {45, 42, 41, 40, 33, 26, 20}, {47, 41, 32, 29, 27, 16}, {48, 47, 44, 40, 39, 37, 36, 32, 28, 27}, {45, 44, 42, 41, 40, 39, 37, 36, 29, 26}, {47, 44, 42, 41, 40, 38, 37, 35, 27}, {46, 45, 44, 36, 35, 28, 27}, {43, 28, 21}, {43, 42, 40, 39, 36, 34, 28}, {46, 43, 42, 40, 36, 34, 29}, {41, 40, 39, 37, 36, 27}, {21}, {39, 38, 37, 36, 35, 34}, {43, 42, 40, 34}, {37, 35, 27}, {37, 36}, {40, 38}, {27}, {34}, {38}, {35}, {39}, {37}, {35}, {34}, {}, {}, {}, {}, {}, {}, {}, {}, {}, {}, {}, {}, {}, {}, {}, {}, {}];
n_opt = 450;
dur = [7, 8, 12, 13, 15, 22, 24, 25, 27, 3, 5, 9, 10, 11, 12, 14, 15, 24, 5, 6, 9, 12, 15, 21, 24, 26, 28, 2, 5, 7, 8, 9, 10, 14, 15, 17, 7, 9, 10, 11, 16, 20, 21, 22, 24, 2, 10, 12, 13, 14, 16, 18, 20, 28, 3, 7, 11, 20, 21, 22, 23, 24, 25, 3, 6, 8, 12, 16, 23, 25, 26, 27, 5, 6, 7, 8, 18, 20, 21, 24, 26, 5, 6, 7, 8, 11, 13, 18, 21, 29, 2, 3, 17, 18, 19, 20, 23, 28, 30, 10, 13, 15, 24, 25, 27, 28, 29, 30, 3, 6, 7, 8, 9, 10, 16, 17, 24, 2, 5, 9, 16, 18, 23, 25, 27, 30, 1, 9, 14, 19, 20, 21, 22, 25, 27, 5, 10, 13, 16, 18, 19, 20, 23, 26, 1, 4, 6, 14, 18, 19, 20, 21, 22, 1, 2, 8, 9, 15, 16, 21, 26, 29, 9, 12, 13, 14, 18, 20, 22, 28, 30, 2, 4, 12, 17, 18, 21, 22, 26, 30, 5, 8, 9, 10, 11, 12, 18, 21, 25, 9, 10, 11, 16, 17, 19, 22, 28, 29, 3, 6, 9, 12, 17, 23, 24, 28, 30, 1, 6, 9, 13, 15, 16, 26, 27, 30, 5, 7, 10, 11, 13, 14, 15, 20, 23, 4, 15, 16, 17, 18, 22, 24, 25, 29, 1, 9, 10, 11, 12, 15, 17, 23, 26, 3, 15, 16, 18, 26, 27, 28, 29, 30, 1, 3, 4, 5, 6, 17, 18, 19, 28, 7, 12, 15, 18, 19, 20, 21, 22, 25, 3, 5, 8, 14, 16, 17, 19, 22, 25, 3, 5, 6, 21, 22, 24, 27, 29, 30, 3, 4, 16, 17, 18, 19, 20, 26, 29, 1, 14, 15, 21, 22, 23, 24, 29, 30, 2, 4, 5, 7, 9, 12, 23, 24, 25, 5, 6, 10, 15, 16, 17, 26, 27, 30, 2, 4, 5, 6, 10, 11, 16, 24, 28, 9, 10, 17, 18, 23, 26, 27, 28, 30, 2, 4, 7, 8, 12, 16, 23, 24, 27, 6, 8, 9, 12, 13, 15, 17, 19, 26, 5, 6, 17, 18, 20, 25, 26, 28, 29, 1, 2, 3, 12, 21, 22, 26, 29, 30, 6, 9, 10, 11, 12, 18, 19, 24, 30, 1, 9, 11, 16, 21, 23, 25, 26, 29, 14, 15, 16, 17, 18, 20, 25, 29, 30, 3, 4, 5, 8, 12, 19, 20, 23, 24, 5, 7, 9, 11, 14, 15, 20, 21, 30, 1, 3, 5, 7, 8, 9, 16, 18, 22, 2, 3, 7, 10, 15, 19, 20, 23, 27, 1, 3, 7, 8, 12, 14, 24, 28, 29];
rreq = [|2, 1, 1, 1, 1, 1, 1, 1, 1, 4, 4, 4, 4, 4, 4, 4, 4, 4, 4, 4, 4, 4, 4, 3, 3, 3, 3, 4, 4, 4, 3, 3, 3, 3, 2, 2, 3, 3, 3, 3, 3, 2, 2, 2, 2, 5, 4, 3, 3, 3, 2, 1, 1, 1, 5, 4, 4, 3, 3, 3, 2, 2, 2, 5, 4, 4, 3, 3, 3, 3, 2, 2, 4, 3, 3, 3, 3, 2, 2, 2, 2, 4, 4, 3, 3, 3, 2, 1, 1, 1, 5, 4, 4, 4, 3, 3, 3, 3, 3, 5, 4, 4, 4, 4, 3, 3, 3, 3, 4, 3, 3, 3, 3, 3, 3, 3, 3, 3, 3, 3, 2, 2, 2, 2, 1, 1, 5, 4, 4, 4, 3, 3, 3, 2, 2, 3, 3, 3, 3, 2, 2, 1, 1, 1, 5, 4, 4, 4, 4, 3, 3, 3, 3, 4, 4, 4, 4, 4, 4, 4, 4, 4, 3, 2, 2, 2, 2, 2, 2, 2, 2, 3, 3, 3, 3, 3, 2, 2, 2, 2, 2, 2, 2, 2, 1, 1, 1, 1, 1, 2, 2, 2, 2, 2, 2, 2, 2, 2, 4, 4, 4, 4, 4, 4, 4, 4, 4, 4, 4, 3, 3, 3, 2, 1, 1, 1, 1, 1, 1, 1, 1, 1, 1, 1, 1, 3, 3, 3, 3, 3, 2, 2, 2, 2, 3, 3, 3, 3, 3, 3, 3, 3, 3, 3, 3, 3, 3, 3, 3, 3, 3, 3, 3, 2, 2, 2, 1, 1, 1, 1, 1, 3, 3, 3, 3, 3, 3, 3, 3, 3, 5, 4, 4, 3, 3, 3, 2, 2, 2, 5, 4, 4, 4, 4, 4, 4, 4, 4, 3, 3, 3, 2, 2, 2, 2, 1, 1, 3, 3, 3, 2, 2, 2, 1, 1, 1, 5, 4, 4, 4, 4, 4, 4, 4, 4, 2, 2, 2, 2, 2, 2, 2, 2, 2, 1, 1, 1, 1, 1, 1, 1, 1, 1, 5, 4, 4, 4, 3, 3, 3, 3, 3, 2, 2, 2, 2, 2, 2, 2, 2, 2, 3, 2, 2, 2, 2, 1, 1, 1, 1, 4, 4, 4, 4, 4, 4, 4, 4, 4, 5, 4, 3, 3, 3, 2, 2, 1, 1, 4, 4, 3, 3, 2, 2, 1, 1, 1, 3, 3, 3, 3, 3, 3, 3, 3, 3, 4, 4, 4, 4, 4, 3, 3, 3, 3, 5, 4, 4, 3, 3, 2, 1, 1, 1, 5, 4, 4, 4, 4, 4, 4, 4, 4, 5, 4, 4, 4, 4, 3, 3, 3, 3, 4, 4, 4, 4, 4, 4, 4, 4, 4, 5, 4, 4, 3, 3, 3, 2, 2, 2
 |4, 4, 4, 3, 3, 3, 3, 2, 2, 4, 4, 4, 4, 4, 4, 4, 4, 4, 3, 3, 3, 3, 3, 3, 3, 3, 3, 4, 4, 4, 4, 3, 3, 3, 3, 3, 3, 3, 3, 3, 3, 3, 3, 3, 3, 2, 2, 2, 2, 2, 2, 2, 2, 2, 4, 4, 4, 4, 4, 4, 4, 4, 4, 3, 3, 3, 3, 3, 3, 3, 3, 3, 4, 3, 3, 2, 2, 2, 2, 1, 1, 4, 4, 4, 4, 3, 3, 3, 3, 3, 2, 1, 1, 1, 1, 1, 1, 1, 1, 3, 3, 3, 3, 2, 2, 2, 2, 2, 3, 3, 3, 3, 3, 3, 3, 3, 3, 4, 3, 3, 2, 2, 2, 2, 1, 1, 2, 2, 2, 2, 2, 2, 2, 2, 2, 5, 5, 5, 5, 5, 5, 5, 5, 5, 2, 2, 2, 2, 2, 2, 2, 2, 2, 4, 4, 4, 3, 3, 3, 2, 2, 2, 4, 4, 4, 3, 2, 2, 2, 1, 1, 5, 5, 5, 5, 5, 5, 5, 5, 5, 3, 2, 2, 2, 1, 1, 1, 1, 1, 4, 3, 3, 3, 2, 2, 2, 2, 2, 5, 4, 4, 3, 3, 3, 3, 2, 2, 3, 3, 3, 3, 3, 3, 3, 3, 3, 3, 3, 3, 3, 3, 3, 3, 3, 3, 4, 3, 3, 3, 3, 3, 3, 3, 3, 2, 2, 2, 2, 1, 1, 1, 1, 1, 3, 2, 2, 2, 1, 1, 1, 1, 1, 1, 1, 1, 1, 1, 1, 1, 1, 1, 5, 4, 4, 3, 3, 3, 2, 2, 2, 4, 4, 4, 4, 4, 4, 4, 4, 4, 5, 4, 4, 4, 4, 4, 4, 4, 4, 5, 4, 4, 4, 3, 3, 2, 2, 2, 4, 3, 3, 3, 2, 2, 2, 2, 2, 4, 4, 3, 3, 2, 2, 1, 1, 1, 4, 4, 4, 4, 4, 4, 4, 4, 4, 5, 5, 5, 5, 5, 5, 5, 5, 5, 1, 1, 1, 1, 1, 1, 1, 1, 1, 4, 4, 4, 3, 2, 2, 2, 1, 1, 5, 5, 5, 5, 5, 5, 5, 5, 5, 4, 4, 4, 4, 4, 4, 4, 4, 4, 5, 4, 4, 4, 4, 4, 4, 4, 4, 5, 4, 4, 4, 4, 3, 3, 3, 3, 3, 3, 3, 3, 2, 2, 2, 1, 1, 4, 4, 4, 4, 3, 3, 2, 2, 2, 5, 4, 4, 4, 3, 3, 3, 2, 2, 4, 3, 3, 3, 2, 2, 2, 2, 2, 3, 2, 2, 2, 2, 1, 1, 1, 1, 5, 4, 3, 3, 2, 2, 2, 1, 1, 5, 4, 4, 3, 3, 2, 2, 1, 1
 |15, 15, 15, 15, 15, 15, 15, 15, 15, 25, 25, 23, 21, 21, 19, 18, 17, 15, 28, 27, 27, 27, 26, 26, 26, 25, 25, 17, 15, 14, 14, 13, 12, 11, 11, 10, 22, 20, 18, 18, 16, 15, 15, 14, 13, 4, 4, 4, 3, 3, 3, 2, 2, 2, 18, 17, 17, 16, 15, 13, 12, 11, 11, 24, 20, 19, 17, 15, 10, 10, 6, 5, 26, 25, 24, 24, 23, 23, 22, 21, 21, 30, 27, 27, 24, 24, 22, 21, 19, 18, 25, 24, 24, 24, 24, 24, 24, 24, 24, 26, 26, 25, 24, 23, 23, 23, 22, 21, 22, 20, 20, 18, 18, 16, 15, 15, 13, 19, 18, 18, 17, 17, 16, 16, 15, 15, 17, 16, 15, 14, 13, 11, 11, 10, 8, 18, 14, 13, 12, 10, 9, 7, 6, 4, 24, 24, 24, 24, 24, 23, 23, 23, 23, 24, 22, 21, 20, 17, 17, 16, 13, 13, 23, 21, 19, 16, 13, 12, 10, 7, 5, 26, 25, 24, 23, 21, 20, 19, 18, 18, 24, 24, 23, 21, 20, 17, 16, 14, 13, 26, 26, 24, 23, 23, 22, 21, 20, 20, 25, 24, 23, 23, 22, 22, 21, 21, 21, 27, 26, 25, 24, 24, 23, 22, 21, 20, 21, 18, 16, 15, 15, 12, 10, 9, 8, 5, 4, 4, 4, 3, 3, 2, 2, 1, 20, 19, 19, 18, 18, 17, 17, 15, 15, 13, 10, 10, 9, 6, 6, 3, 3, 1, 11, 11, 11, 11, 11, 11, 11, 11, 11, 19, 17, 17, 16, 16, 15, 15, 15, 14, 10, 9, 9, 7, 6, 6, 5, 3, 3, 16, 14, 14, 12, 11, 10, 9, 9, 8, 21, 21, 21, 21, 21, 21, 21, 21, 21, 28, 27, 26, 25, 24, 23, 23, 22, 21, 21, 17, 15, 13, 10, 8, 8, 4, 3, 21, 21, 19, 16, 15, 13, 13, 9, 9, 23, 20, 18, 17, 14, 14, 11, 8, 7, 11, 10, 10, 8, 8, 6, 6, 5, 4, 11, 11, 9, 8, 7, 5, 4, 2, 1, 30, 26, 24, 20, 18, 17, 13, 10, 9, 24, 22, 20, 16, 15, 14, 12, 9, 7, 20, 19, 18, 18, 17, 16, 16, 16, 15, 16, 14, 14, 12, 12, 11, 9, 8, 8, 23, 23, 23, 23, 23, 23, 23, 23, 23, 20, 19, 19, 18, 16, 16, 15, 14, 13, 26, 24, 21, 21, 17, 16, 14, 10, 8, 21, 21, 21, 21, 21, 21, 21, 21, 21, 26, 24, 22, 22, 18, 16, 15, 14, 11, 18, 16, 13, 13, 9, 8, 7, 4, 3, 24, 24, 22, 21, 21, 19, 18, 17, 17
 |6, 6, 6, 6, 5, 5, 5, 5, 5, 19, 19, 19, 19, 19, 18, 18, 18, 18, 11, 11, 10, 8, 8, 8, 7, 6, 5, 28, 27, 27, 27, 26, 26, 26, 25, 25, 24, 23, 23, 23, 23, 23, 23, 23, 23, 20, 18, 17, 16, 15, 15, 14, 13, 12, 23, 21, 20, 18, 16, 15, 15, 14, 13, 17, 17, 17, 17, 17, 16, 16, 16, 16, 23, 20, 18, 17, 15, 11, 8, 6, 6, 30, 29, 28, 26, 26, 26, 24, 23, 23, 28, 26, 24, 23, 20, 20, 16, 15, 13, 28, 27, 27, 26, 26, 26, 25, 25, 25, 16, 16, 14, 14, 13, 11, 11, 10, 9, 30, 25, 20, 20, 16, 14, 10, 5, 5, 25, 23, 21, 18, 16, 15, 13, 10, 7, 25, 22, 20, 17, 16, 14, 11, 11, 8, 27, 27, 24, 22, 20, 17, 16, 13, 13, 25, 23, 23, 22, 21, 19, 18, 17, 16, 29, 25, 24, 22, 21, 18, 16, 13, 12, 21, 20, 19, 18, 18, 17, 16, 15, 14, 27, 27, 25, 23, 22, 21, 20, 19, 17, 24, 24, 22, 18, 18, 17, 13, 13, 10, 27, 24, 23, 20, 18, 14, 13, 9, 7, 30, 29, 28, 27, 26, 26, 26, 24, 24, 12, 12, 12, 12, 11, 11, 10, 10, 10, 16, 13, 12, 9, 7, 6, 4, 2, 2, 20, 17, 17, 12, 10, 8, 6, 4, 3, 24, 23, 22, 22, 22, 21, 20, 20, 20, 23, 19, 18, 15, 11, 11, 9, 5, 5, 25, 25, 25, 24, 24, 24, 23, 23, 23, 15, 13, 12, 11, 11, 11, 9, 9, 8, 22, 19, 19, 16, 15, 14, 11, 11, 9, 25, 23, 23, 21, 21, 19, 19, 17, 16, 28, 26, 23, 20, 19, 15, 13, 9, 9, 25, 23, 19, 15, 13, 11, 9, 7, 5, 26, 24, 24, 23, 20, 19, 18, 17, 15, 23, 21, 18, 17, 16, 11, 11, 7, 7, 27, 26, 25, 24, 23, 23, 23, 22, 21, 3, 3, 3, 3, 3, 3, 3, 3, 3, 14, 13, 12, 12, 10, 8, 7, 7, 5, 21, 20, 16, 16, 12, 11, 6, 4, 4, 28, 26, 20, 19, 15, 14, 9, 5, 5, 28, 28, 28, 28, 28, 28, 28, 28, 28, 13, 12, 11, 9, 9, 6, 6, 4, 2, 15, 15, 14, 13, 13, 13, 12, 12, 11, 26, 24, 22, 19, 18, 16, 13, 12, 10, 30, 28, 27, 26, 26, 24, 23, 22, 21, 15, 14, 12, 12, 11, 10, 9, 8, 7, 12, 12, 10, 9, 7, 6, 5, 4, 2, 4, 4, 4, 4, 4, 4, 4, 4, 4
 |15, 14, 14, 14, 13, 13, 13, 12, 12, 27, 26, 26, 24, 24, 23, 22, 21, 21, 29, 27, 27, 26, 25, 22, 21, 20, 20, 23, 21, 20, 19, 17, 16, 14, 12, 11, 19, 17, 16, 16, 15, 15, 14, 13, 12, 28, 25, 23, 19, 17, 13, 10, 8, 4, 20, 20, 20, 20, 19, 19, 19, 18, 18, 11, 11, 11, 11, 11, 11, 11, 11, 11, 29, 28, 27, 26, 26, 25, 25, 23, 23, 27, 25, 23, 21, 19, 18, 17, 16, 14, 23, 23, 22, 19, 18, 17, 15, 13, 12, 17, 15, 14, 12, 12, 11, 10, 9, 8, 28, 25, 22, 22, 18, 16, 14, 14, 11, 12, 11, 11, 10, 7, 6, 5, 3, 2, 9, 8, 8, 8, 6, 6, 6, 5, 4, 2, 2, 2, 2, 2, 1, 1, 1, 1, 19, 19, 18, 18, 16, 16, 16, 14, 14, 18, 18, 17, 16, 13, 13, 11, 10, 9, 25, 25, 25, 24, 24, 24, 24, 23, 23, 25, 23, 20, 18, 18, 16, 14, 12, 11, 21, 21, 21, 21, 21, 21, 21, 21, 21, 9, 9, 8, 8, 6, 6, 5, 4, 4, 28, 26, 23, 23, 19, 17, 16, 14, 12, 16, 14, 13, 11, 11, 8, 7, 5, 5, 19, 17, 17, 16, 15, 15, 15, 13, 13, 23, 23, 22, 22, 21, 20, 20, 20, 19, 16, 16, 14, 12, 12, 11, 10, 7, 6, 20, 20, 18, 16, 13, 12, 11, 10, 7, 5, 4, 4, 4, 4, 3, 3, 3, 3, 15, 14, 12, 10, 10, 9, 7, 6, 4, 21, 18, 18, 14, 13, 11, 8, 7, 4, 22, 20, 19, 18, 17, 16, 14, 14, 13, 16, 15, 14, 13, 11, 10, 9, 9, 8, 1, 1, 1, 1, 1, 1, 1, 1, 1, 24, 23, 22, 20, 19, 18, 17, 15, 14, 13, 12, 12, 11, 11, 10, 9, 9, 9, 11, 10, 9, 7, 7, 6, 4, 3, 3, 23, 22, 22, 22, 22, 21, 21, 21, 21, 22, 18, 18, 15, 14, 13, 12, 9, 7, 17, 16, 16, 15, 13, 12, 12, 10, 10, 16, 15, 15, 15, 15, 15, 15, 15, 15, 28, 24, 22, 19, 14, 13, 9, 7, 4, 28, 23, 23, 18, 16, 13, 9, 5, 2, 23, 23, 23, 23, 23, 23, 23, 23, 23, 23, 22, 22, 22, 22, 22, 22, 22, 22, 23, 20, 20, 18, 17, 15, 13, 12, 11, 27, 27, 26, 26, 25, 25, 24, 23, 23, 26, 25, 25, 24, 24, 23, 23, 23, 22, 16, 16, 15, 12, 10, 10, 9, 6, 6, 27, 27, 27, 27, 27, 27, 27, 27, 27
 |25, 23, 20, 20, 17, 16, 14, 14, 12, 16, 16, 13, 13, 11, 9, 6, 4, 4, 16, 15, 15, 14, 14, 13, 13, 12, 12, 16, 16, 16, 15, 15, 15, 14, 14, 14, 24, 24, 24, 23, 23, 23, 23, 23, 23, 26, 25, 24, 24, 23, 23, 23, 22, 22, 23, 20, 17, 15, 14, 12, 10, 7, 7, 28, 27, 24, 24, 23, 20, 18, 17, 16, 26, 24, 22, 20, 18, 14, 12, 9, 7, 29, 26, 22, 17, 14, 11, 9, 7, 5, 26, 26, 24, 23, 21, 21, 19, 18, 18, 25, 25, 23, 21, 21, 20, 19, 16, 16, 17, 16, 16, 16, 16, 16, 16, 16, 16, 21, 20, 16, 15, 12, 11, 8, 6, 5, 30, 29, 28, 26, 25, 25, 23, 23, 22, 4, 4, 4, 4, 4, 4, 4, 4, 4, 25, 25, 24, 21, 20, 19, 17, 16, 15, 16, 15, 14, 14, 13, 13, 13, 12, 12, 21, 20, 20, 20, 20, 20, 20, 20, 20, 18, 18, 16, 16, 13, 12, 11, 9, 8, 21, 17, 16, 13, 12, 8, 7, 5, 2, 17, 17, 16, 16, 16, 15, 15, 14, 14, 20, 20, 20, 19, 19, 18, 17, 17, 17, 21, 19, 17, 14, 13, 10, 8, 8, 5, 26, 26, 25, 24, 23, 23, 23, 22, 21, 24, 21, 19, 17, 17, 15, 13, 10, 9, 23, 23, 23, 23, 23, 23, 23, 23, 23, 14, 11, 11, 9, 8, 7, 5, 4, 3, 19, 19, 17, 15, 13, 11, 11, 9, 7, 27, 26, 26, 26, 25, 25, 25, 25, 25, 9, 8, 7, 6, 5, 5, 3, 2, 2, 5, 5, 5, 5, 5, 4, 4, 3, 4, 29, 29, 29, 29, 29, 29, 29, 29, 29, 20, 19, 17, 14, 14, 12, 9, 9, 6, 6, 6, 6, 6, 5, 5, 5, 5, 5, 15, 13, 13, 12, 12, 11, 10, 9, 9, 4, 3, 3, 3, 2, 2, 1, 1, 1, 26, 23, 22, 21, 19, 17, 16, 14, 14, 10, 8, 7, 7, 5, 5, 3, 2, 2, 29, 24, 22, 18, 16, 12, 7, 4, 1, 22, 22, 22, 22, 22, 21, 21, 21, 21, 25, 25, 24, 23, 23, 22, 21, 21, 20, 20, 17, 17, 15, 11, 9, 7, 6, 3, 17, 16, 15, 15, 14, 12, 11, 10, 9, 25, 25, 24, 24, 23, 22, 22, 21, 20, 27, 24, 19, 18, 15, 11, 6, 6, 1, 17, 16, 15, 15, 12, 12, 10, 9, 8, 21, 20, 19, 18, 18, 18, 16, 15, 15, 29, 26, 25, 22, 21, 18, 16, 16, 13, 26, 22, 19, 17, 13, 11, 10, 7, 3|];